certificates/rado_a13_c249_N25.cnf
c Rad2 upper bound instance: x1 + 13*x2 - x3 = 249, interval [1,25]
p cnf 25 96
1 12 20 0
-1 -12 -20 0
1 21 25 0
-1 -21 -25 0
2 13 20 0
-2 -13 -20 0
1 3 19 0
-1 -3 -19 0
3 14 20 0
-3 -14 -20 0
2 4 19 0
-2 -4 -19 0
4 15 20 0
-4 -15 -20 0
3 5 19 0
-3 -5 -19 0
5 16 20 0
-5 -16 -20 0
4 6 19 0
-4 -6 -19 0
6 17 20 0
-6 -17 -20 0
5 7 19 0
-5 -7 -19 0
7 18 20 0
-7 -18 -20 0
6 8 19 0
-6 -8 -19 0
8 19 20 0
-8 -19 -20 0
7 9 19 0
-7 -9 -19 0
9 20 0
-9 -20 0
8 10 19 0
-8 -10 -19 0
10 20 21 0
-10 -20 -21 0
9 11 19 0
-9 -11 -19 0
11 20 22 0
-11 -20 -22 0
10 12 19 0
-10 -12 -19 0
12 20 23 0
-12 -20 -23 0
11 13 19 0
-11 -13 -19 0
13 20 24 0
-13 -20 -24 0
12 14 19 0
-12 -14 -19 0
14 20 25 0
-14 -20 -25 0
13 15 19 0
-13 -15 -19 0
1 16 18 0
-1 -16 -18 0
14 16 19 0
-14 -16 -19 0
2 17 18 0
-2 -17 -18 0
15 17 19 0
-15 -17 -19 0
3 18 0
-3 -18 0
16 18 19 0
-16 -18 -19 0
4 18 19 0
-4 -18 -19 0
17 19 0
-17 -19 0
5 18 20 0
-5 -18 -20 0
18 19 20 0
-18 -19 -20 0
6 18 21 0
-6 -18 -21 0
19 21 0
-19 -21 0
7 18 22 0
-7 -18 -22 0
19 20 22 0
-19 -20 -22 0
8 18 23 0
-8 -18 -23 0
19 21 23 0
-19 -21 -23 0
9 18 24 0
-9 -18 -24 0
19 22 24 0
-19 -22 -24 0
10 18 25 0
-10 -18 -25 0
19 23 25 0
-19 -23 -25 0
