certificates/rado_a13_c249_N25.drat
19 -24 -25 0
-20 23 -19 0
-24 -25 0
d 19 -24 -25 0
-19 -12 20 0
20 23 -25 0
23 -25 0
d 20 23 -25 0
-25 0
19 12 -20 0
12 -20 0
d 19 12 -20 0
-20 -23 0
d -20 -12 -23 0
-19 20 0
d -19 -12 20 0
-23 0
19 0
-17 0
-21 0
-20 0
0
